NPROCS=0
This instance is clustered!
Gurobi Optimizer version 9.0.0 build v9.0.0rc2 (linux64)
Optimize a model with 26 rows, 170 columns and 338 nonzeros
Model fingerprint: 0x69a9d134
Variable types: 1 continuous, 169 integer (169 binary)
Coefficient statistics:
  Matrix range     [1e+00, 1e+00]
  Objective range  [1e+00, 1e+02]
  Bounds range     [1e+00, 1e+00]
  RHS range        [1e+00, 1e+00]
 done with super cut 0
Presolve removed 2 rows and 36 columns
Presolve time: 0.00s
Presolved: 24 rows, 134 columns, 266 nonzeros
Variable types: 1 continuous, 133 integer (133 binary)

Root relaxation: objective 1.945071e+02, 16 iterations, 0.00 seconds

    Nodes    |    Current Node    |     Objective Bounds      |     Work
 Expl Unexpl |  Obj  Depth IntInf | Incumbent    BestBd   Gap | It/Node Time

     0     0  250.90870    0   16          -  250.90870      -     -    0s
 done with super cut 1
 done with super cut 2
H    0     0                     562.4241735  250.90870  55.4%     -    0s
     0     0  292.22648    0   10  562.42417  292.22648  48.0%     -    0s
 done with super cut 3
     0     0  293.50691    0   27  562.42417  293.50691  47.8%     -    0s
 done with super cut 4
 done with super cut 5
H    0     0                     516.3584917  293.50691  43.2%     -    0s
 done with super cut 6
 done with super cut 7
 done with super cut 8
 done with super cut 9
H    0     0                     393.1694033  293.50691  25.3%     -    0s
     0     0  293.50691    0   20  393.16940  293.50691  25.3%     -    0s
 done with super cut 10
H    0     0                     354.5967348  293.50691  17.2%     -    0s
     0     0  297.62644    0   22  354.59673  297.62644  16.1%     -    0s
     0     0  298.74093    0   28  354.59673  298.74093  15.8%     -    0s
     0     0  300.66033    0   33  354.59673  300.66033  15.2%     -    0s
     0     0  300.73037    0   31  354.59673  300.73037  15.2%     -    0s
     0     0  301.18017    0   36  354.59673  301.18017  15.1%     -    0s
     0     0  301.22479    0   35  354.59673  301.22479  15.1%     -    0s
     0     0  301.97029    0   37  354.59673  301.97029  14.8%     -    0s
     0     0  301.99593    0   36  354.59673  301.99593  14.8%     -    0s
     0     0  302.28988    0   33  354.59673  302.28988  14.8%     -    0s
     0     0  302.28988    0   33  354.59673  302.28988  14.8%     -    0s
     0     2  305.32781    0   34  354.59673  305.32781  13.9%     -    0s

Cutting planes:
  Gomory: 2
  MIR: 3
  Zero half: 5
  Lazy constraints: 70

Explored 808 nodes (4669 simplex iterations) in 0.95 seconds
Thread count was 12 (of 12 available processors)

Solution count 4: 354.597 393.169 516.358 562.424 

Optimal solution found (tolerance 1.00e-04)
Best objective 3.545967347508e+02, best bound 3.545967347508e+02, gap 0.0000%

User-callback calls 1915, time in user-callback 0.80 sec
/projects/academic/josewalt/caigao/RRARP_BD/BendersDecomp/ret/model_outs/n_11_m_1_algo_4.out
 =====>>>>> Solution is written to file in <../ret/model_outs> !!!
===>> All Done!
